(set-logic HORN)
(declare-fun state (Int Int Int Int (Array Int Int) Int Int Int Int (Array Int Int) Bool) Bool)
(assert (forall ((|G_3| Int) (|F_3| Int) (|C_3| Int) (|A_3| Int) (|E_3| (Array Int Int)) (|I_0| Int) (|B_3| Int) (|D_3| Int) (|J| Int) (|H_3| (Array Int Int)) (|.loc.12| Bool) (|.loc.23| Bool) (|.y.21| Int) (|.y.20| Int) (|.y.15| Int) (|.y.13| Int) (|.y.22| (Array Int Int)) (|.y.19| Int) (|.y.18| Int) (|.y.16| Int) (|.y.14| Int) (|.y.17| (Array Int Int))) (=> (and (and (not (= B_3 0)) (and (and (= A_3 B_3) (and (and (and (and (= I_0 D_3) (= F_3 C_3)) (= E_3 H_3)) (= G_3 J)) (= F_3 I_0))) (not (= A_3 0)))) (not .loc.12)) (state |G_3| |F_3| |C_3| |A_3| |E_3| |I_0| |B_3| |D_3| |J| |H_3| |.loc.12|))))
(assert (forall ((|G_3| Int) (|F_3| Int) (|C_3| Int) (|A_3| Int) (|E_3| (Array Int Int)) (|I_0| Int) (|B_3| Int) (|D_3| Int) (|J| Int) (|H_3| (Array Int Int)) (|.loc.12| Bool) (|.loc.23| Bool) (|.y.21| Int) (|.y.20| Int) (|.y.15| Int) (|.y.13| Int) (|.y.22| (Array Int Int)) (|.y.19| Int) (|.y.18| Int) (|.y.16| Int) (|.y.14| Int) (|.y.17| (Array Int Int))) (=> (and (state |G_3| |F_3| |C_3| |A_3| |E_3| |I_0| |B_3| |D_3| |J| |H_3| |.loc.12|) (let ((.def_41 (store E_3 F_3 G_3))) (let ((.def_42 (store H_3 I_0 J))) (let ((.def_49 (= B_3 1))) (let ((.def_51 (= A_3 1))) (let ((.def_55 (not .def_51))) (let ((.def_56 (not .def_49))) (let ((.def_58 (not .loc.23))) (let ((.def_61 (= J .y.21))) (let ((.def_64 (= D_3 .y.20))) (let ((.def_67 (= C_3 .y.15))) (let ((.def_70 (= G_3 .y.13))) (let ((.def_73 (= .def_42 .y.22))) (let ((.def_79 (= (+ B_3 (* (- 1) .y.19)) 1))) (let ((.def_84 (= (+ I_0 (* (- 1) .y.18)) (- 1)))) (let ((.def_89 (= (+ A_3 (* (- 1) .y.16)) 1))) (let ((.def_94 (= (+ F_3 (* (- 1) .y.14)) (- 1)))) (let ((.def_97 (= .def_41 .y.17))) (and (not .loc.12) (or (or (or (and (and (and (or (not (= .def_41 .def_42)) (not (= C_3 D_3))) .def_49) .def_51) .loc.23) (and (and (and (and (and (and (and (and (and (and (and (and .def_55 .def_56) .def_58) .def_61) .def_64) .def_67) .def_70) .def_73) .def_79) .def_84) .def_89) .def_94) .def_97)) (and (= I_0 .y.18) (and (= B_3 .y.19) (and (= H_3 .y.22) (and .def_97 (and .def_94 (and .def_89 (and .def_70 (and .def_67 (and .def_64 (and .def_61 (and .def_58 (and .def_49 .def_55))))))))))))) (and (= F_3 .y.14) (and (= A_3 .y.16) (and (= E_3 .y.17) (and .def_84 (and .def_79 (and .def_73 (and .def_70 (and .def_67 (and .def_64 (and .def_61 (and .def_58 (and .def_51 .def_56)))))))))))))))))))))))))))))))) (state |.y.13| |.y.14| |.y.15| |.y.16| |.y.17| |.y.18| |.y.19| |.y.20| |.y.21| |.y.22| |.loc.23|))))
(assert (forall ((|G_3| Int) (|F_3| Int) (|C_3| Int) (|A_3| Int) (|E_3| (Array Int Int)) (|I_0| Int) (|B_3| Int) (|D_3| Int) (|J| Int) (|H_3| (Array Int Int)) (|.loc.12| Bool) (|.loc.23| Bool) (|.y.21| Int) (|.y.20| Int) (|.y.15| Int) (|.y.13| Int) (|.y.22| (Array Int Int)) (|.y.19| Int) (|.y.18| Int) (|.y.16| Int) (|.y.14| Int) (|.y.17| (Array Int Int))) (=> (state |G_3| |F_3| |C_3| |A_3| |E_3| |I_0| |B_3| |D_3| |J| |H_3| |.loc.12|) (not .loc.12))))
(check-sat)
